;; Mutation-Based Equivalence Benchmark
;; Source:     AutomatArk / instance10412.smt2
;; Mutations:  range_shrink_hi
;; Status:     sat
;;
;; Original regex vs mutated regex
;; Equivalence check: unsat ⟺ L(R1) = L(R2)

(set-info :smt-lib-version 2.6)
(set-info :category "mutation")
(set-info :status sat)
(set-logic QF_S)


;; R1: original
;; R2: mutated (range_shrink_hi)
(assert
  (not
    (=
      (re.++ (re.union (re.++ ((_ re.loop 2 2) (re.range "A" "Z")) (re.union (str.to_re " ") (str.to_re "\u{9}") (str.to_re "\u{a}") (str.to_re "\u{c}") (str.to_re "\u{d}"))) ((_ re.loop 2 2) (re.range "A" "Z"))) ((_ re.loop 2 2) (re.union (re.range "0" "9") (re.range "A" "Z") (re.range "a" "z") (str.to_re "_"))) (str.to_re "\u{a}"))
      (re.++ (re.union (re.++ ((_ re.loop 2 2) (re.range "A" "Z")) (re.union (str.to_re " ") (str.to_re "\u{9}") (str.to_re "\u{a}") (str.to_re "\u{c}") (str.to_re "\u{d}"))) ((_ re.loop 2 2) (re.range "A" "Y"))) ((_ re.loop 2 2) (re.union (re.range "0" "9") (re.range "A" "Z") (re.range "a" "z") (str.to_re "_"))) (str.to_re "\u{a}")))))

(check-sat)
(exit)
